language ESSENCE' 1.0
$ Equidistant Frequency Permutation Arrays.
$ Details available from CP paper. 

letting d=3      $ the hamming distance between all pairs of words.
letting lam=8    $ Occurrences of each symbol
letting q=8      $ Number of symbols
letting numCodeWords=8      $ aka v, number of words

